min: c;

c = 3.37579931041322 * u1_t7_h4 + 3.90980868865498 * u1_t7_h5 + 4.21921017220843 * u1_t5_h6 + 4.21921017220843 * u1_t7_h6 + 3.71888973823202 * u1_t5_h7 + 3.71888973823202 * u1_t7_h7 + 3.71888973823202 * u1_t9_h7 + 5.55683668047545 * u1_t5_h8 + 5.55683668047545 * u1_t7_h8 + 5.55683668047545 * u1_t9_h8 + 5.55683668047545 * u1_t10_h8 + 5.41908433499113 * u1_t5_h9 + 5.41908433499113 * u1_t7_h9 + 5.41908433499113 * u1_t9_h9 + 5.41908433499113 * u1_t10_h9 + 5.15172332174105 * u1_t5_h10 + 5.15172332174105 * u1_t7_h10 + 5.15172332174105 * u1_t9_h10 + 5.15172332174105 * u1_t10_h10 + 3.48955240614058 * u1_t5_h11 + 3.48955240614058 * u1_t9_h11 + 3.48955240614058 * u1_t10_h11 + 5.95075516621108 * u1_t4_h12 + 5.95075516621108 * u1_t5_h12 + 5.95075516621108 * u1_t8_h12 + 5.95075516621108 * u1_t9_h12 + 5.95075516621108 * u1_t10_h12 + 4.83252396257116 * u1_t4_h13 + 4.83252396257116 * u1_t8_h13 + 4.83252396257116 * u1_t9_h13 + 4.83252396257116 * u1_t10_h13 + 5.23838138964465 * u1_t4_h14 + 5.23838138964465 * u1_t8_h14 + 5.23838138964465 * u1_t9_h14 + 5.23838138964465 * u1_t10_h14 + 5.92721682878892 * u1_t4_h15 + 5.92721682878892 * u1_t8_h15 + 5.39805471403348 * u1_t4_h16 + 5.39805471403348 * u1_t8_h16 + 6.66347694016676 * u1_t4_h17 + 6.66347694016676 * u1_t8_h17 + 6.06929245989174 * u1_t2_h18 + 6.06929245989174 * u1_t4_h18 + 6.06929245989174 * u1_t6_h18 + 6.06929245989174 * u1_t8_h18 + 5.61681122482991 * u1_t2_h19 + 5.61681122482991 * u1_t3_h19 + 5.61681122482991 * u1_t4_h19 + 5.61681122482991 * u1_t6_h19 + 5.85714423642274 * u1_t1_h20 + 5.85714423642274 * u1_t2_h20 + 5.85714423642274 * u1_t3_h20 + 5.85714423642274 * u1_t4_h20 + 5.85714423642274 * u1_t6_h20 + 5.34619491856112 * u1_t1_h21 + 5.34619491856112 * u1_t2_h21 + 5.34619491856112 * u1_t3_h21 + 5.65352267332662 * u1_t1_h22 + 5.65352267332662 * u1_t2_h22 + 5.11311264895507 * u1_t1_h23 + 5.11311264895507 * u1_t2_h23;
0 <= u1_t1_h20 <= 1;
0 <= u1_t1_h21 <= 1;
0 <= u1_t1_h22 <= 1;
0 <= u1_t1_h23 <= 1;
u1_t1_h20 + u1_t1_h21 + u1_t1_h22 + u1_t1_h23 = 1;
0 <= u1_t2_h18 <= 1;
0 <= u1_t2_h19 <= 1;
0 <= u1_t2_h20 <= 1;
0 <= u1_t2_h21 <= 1;
0 <= u1_t2_h22 <= 1;
0 <= u1_t2_h23 <= 1;
u1_t2_h18 + u1_t2_h19 + u1_t2_h20 + u1_t2_h21 + u1_t2_h22 + u1_t2_h23 = 2;
0 <= u1_t3_h19 <= 1;
0 <= u1_t3_h20 <= 1;
0 <= u1_t3_h21 <= 1;
u1_t3_h19 + u1_t3_h20 + u1_t3_h21 = 1;
0 <= u1_t4_h12 <= 1;
0 <= u1_t4_h13 <= 1;
0 <= u1_t4_h14 <= 1;
0 <= u1_t4_h15 <= 1;
0 <= u1_t4_h16 <= 1;
0 <= u1_t4_h17 <= 1;
0 <= u1_t4_h18 <= 1;
0 <= u1_t4_h19 <= 1;
0 <= u1_t4_h20 <= 1;
u1_t4_h12 + u1_t4_h13 + u1_t4_h14 + u1_t4_h15 + u1_t4_h16 + u1_t4_h17 + u1_t4_h18 + u1_t4_h19 + u1_t4_h20 = 3;
0 <= u1_t5_h6 <= 1;
0 <= u1_t5_h7 <= 1;
0 <= u1_t5_h8 <= 1;
0 <= u1_t5_h9 <= 1;
0 <= u1_t5_h10 <= 1;
0 <= u1_t5_h11 <= 1;
0 <= u1_t5_h12 <= 1;
u1_t5_h6 + u1_t5_h7 + u1_t5_h8 + u1_t5_h9 + u1_t5_h10 + u1_t5_h11 + u1_t5_h12 = 3;
0 <= u1_t6_h18 <= 1;
0 <= u1_t6_h19 <= 1;
0 <= u1_t6_h20 <= 1;
u1_t6_h18 + u1_t6_h19 + u1_t6_h20 = 2;
0 <= u1_t7_h4 <= 1;
0 <= u1_t7_h5 <= 1;
0 <= u1_t7_h6 <= 1;
0 <= u1_t7_h7 <= 1;
0 <= u1_t7_h8 <= 1;
0 <= u1_t7_h9 <= 1;
0 <= u1_t7_h10 <= 1;
u1_t7_h4 + u1_t7_h5 + u1_t7_h6 + u1_t7_h7 + u1_t7_h8 + u1_t7_h9 + u1_t7_h10 = 2;
0 <= u1_t8_h12 <= 1;
0 <= u1_t8_h13 <= 1;
0 <= u1_t8_h14 <= 1;
0 <= u1_t8_h15 <= 1;
0 <= u1_t8_h16 <= 1;
0 <= u1_t8_h17 <= 1;
0 <= u1_t8_h18 <= 1;
u1_t8_h12 + u1_t8_h13 + u1_t8_h14 + u1_t8_h15 + u1_t8_h16 + u1_t8_h17 + u1_t8_h18 = 2;
0 <= u1_t9_h7 <= 1;
0 <= u1_t9_h8 <= 1;
0 <= u1_t9_h9 <= 1;
0 <= u1_t9_h10 <= 1;
0 <= u1_t9_h11 <= 1;
0 <= u1_t9_h12 <= 1;
0 <= u1_t9_h13 <= 1;
0 <= u1_t9_h14 <= 1;
u1_t9_h7 + u1_t9_h8 + u1_t9_h9 + u1_t9_h10 + u1_t9_h11 + u1_t9_h12 + u1_t9_h13 + u1_t9_h14 = 3;
0 <= u1_t10_h8 <= 1;
0 <= u1_t10_h9 <= 1;
0 <= u1_t10_h10 <= 1;
0 <= u1_t10_h11 <= 1;
0 <= u1_t10_h12 <= 1;
0 <= u1_t10_h13 <= 1;
0 <= u1_t10_h14 <= 1;
u1_t10_h8 + u1_t10_h9 + u1_t10_h10 + u1_t10_h11 + u1_t10_h12 + u1_t10_h13 + u1_t10_h14 = 3;
